c File: instances/26_0.25_2.col
c
c Description: Random graph of size 26 vertices and P(0.25) of edges between any two vertices.
p col 26 325
e 1 2
e 1 8
e 1 9
e 1 10
e 1 14
e 1 15
e 1 16
e 1 21
e 2 3
e 2 9
e 2 10
e 2 11
e 2 12
e 2 21
e 2 23
e 3 5
e 3 7
e 3 11
e 3 16
e 3 18
e 3 20
e 3 25
e 4 6
e 4 12
e 4 16
e 4 21
e 4 25
e 4 26
e 5 6
e 5 25
e 6 11
e 6 17
e 6 24
e 7 10
e 7 13
e 7 15
e 7 19
e 7 23
e 8 9
e 8 12
e 8 15
e 8 18
e 8 22
e 8 23
e 8 24
e 9 11
e 9 12
e 9 14
e 9 15
e 9 17
e 9 18
e 9 20
e 9 21
e 9 25
e 10 14
e 10 21
e 10 22
e 10 26
e 11 15
e 11 19
e 12 20
e 12 24
e 12 25
e 13 14
e 13 15
e 13 19
e 13 25
e 14 15
e 14 22
e 14 24
e 14 25
e 15 16
e 15 18
e 15 19
e 15 23
e 16 21
e 16 23
e 16 26
e 17 20
e 17 24
e 17 26
e 18 22
e 19 21
e 19 23
e 19 25
e 20 23
e 20 26
e 21 22
e 22 25
e 23 24
e 23 25
e 23 26
e 25 26